c Reduced graph for GEOM40a_0 generated by Cyril Grelier
p edge 34 124
e 1 2
e 1 15
e 1 16
e 1 18
e 1 24
e 1 27
e 1 31
e 1 32
e 2 8
e 2 15
e 2 18
e 2 29
e 2 31
e 2 32
e 3 10
e 3 11
e 3 20
e 3 21
e 3 28
e 5 6
e 5 7
e 5 9
e 5 10
e 5 12
e 5 17
e 5 23
e 5 25
e 5 26
e 5 30
e 5 33
e 6 9
e 6 10
e 6 12
e 6 14
e 6 17
e 6 19
e 6 23
e 6 26
e 6 30
e 6 34
e 7 22
e 7 25
e 7 26
e 7 30
e 8 11
e 8 13
e 8 15
e 8 29
e 9 10
e 9 12
e 9 14
e 9 17
e 9 19
e 9 26
e 9 30
e 9 34
e 10 12
e 10 17
e 10 20
e 10 23
e 10 26
e 10 30
e 11 13
e 11 20
e 11 21
e 11 28
e 11 29
e 12 14
e 12 17
e 12 19
e 12 23
e 12 25
e 12 26
e 12 33
e 12 34
e 13 15
e 13 21
e 13 28
e 13 29
e 14 17
e 14 19
e 14 34
e 15 18
e 15 29
e 16 18
e 16 22
e 16 24
e 16 27
e 16 31
e 16 32
e 17 19
e 17 23
e 17 33
e 17 34
e 18 22
e 18 24
e 18 27
e 18 31
e 18 32
e 19 33
e 19 34
e 20 21
e 20 28
e 20 30
e 21 28
e 22 24
e 22 27
e 22 31
e 22 32
e 23 25
e 23 26
e 23 30
e 23 33
e 24 27
e 24 31
e 24 32
e 25 26
e 25 33
e 26 30
e 26 33
e 27 31
e 27 32
e 28 29
e 31 32
